NAME          COPTPROB
OBJSENSE
  MIN
ROWS
 N  __OBJ___
 L  C61     
 L  C65     
 L  C78     
 L  C146    
 L  C153    
 L  C183    
 L  C184    
COLUMNS
    MARKER    'MARKER'                 'INTORG'
    x28       __OBJ___  203
    x28       C184      -1
    x50       __OBJ___  217
    x50       C65       -1
    x50       C183      -1
    x136      __OBJ___  213
    x136      C61       -1
    x136      C146      -1
    x260      __OBJ___  428
    x260      C78       -1
    x260      C184      -1
    x324      __OBJ___  359
    x324      C146      -1
    x324      C184      -1
    x356      __OBJ___  433
    x356      C153      -1
    x356      C183      -1
    x480      __OBJ___  81
    x480      C61       -1
    x480      C65       -1
    x695      __OBJ___  270
    x695      C78       -1
    x695      C153      -1
    x758      __OBJ___  184
    x758      C146      -1
    MARKER    'MARKER'                 'INTEND'
RHS
    RHS       __OBJ___  -16063
    RHS       C61       -1
    RHS       C65       -1
    RHS       C78       -1
    RHS       C146      -1
    RHS       C153      -1
    RHS       C183      -1
    RHS       C184      -1
BOUNDS
 UP BOUND     x28       1
 UP BOUND     x50       1
 UP BOUND     x136      1
 UP BOUND     x260      1
 UP BOUND     x324      1
 UP BOUND     x356      1
 UP BOUND     x480      1
 UP BOUND     x695      1
 UP BOUND     x758      1
ENDATA
